NAME : prob30d
TYPE : PDTSP
DIMENSION : 61
EDGE_WEIGHT_TYPE : EUC_2D
NODE_COORD_SECTION
1 183 424
2 371 511
3 49 235
4 397 59
5 759 295
6 723 696
7 575 334
8 703 535
9 159 294
10 750 353
11 37 277
12 686 924
13 16 127
14 653 545
15 790 680
16 424 280
17 776 806
18 301 916
19 459 670
20 421 910
21 976 549
22 277 66
23 811 360
24 996 463
25 366 529
26 850 379
27 167 238
28 132 876
29 870 564
30 799 97
31 83 689
32 876 651
33 62 853
34 763 57
35 298 9
36 151 770
37 886 286
38 2 851
39 969 208
40 782 585
41 645 699
42 256 106
43 12 894
44 437 187
45 829 682
46 667 215
47 999 258
48 107 65
49 274 178
50 596 129
51 395 990
52 775 378
53 216 195
54 504 761
55 108 514
56 873 773
57 277 376
58 996 119
59 246 508
60 230 484
61 109 56
PICKUP_AND_DELIVERY_SECTION
1 0 0 0 0 0 0
2 0 0 0 0 32 0
3 0 0 0 0 33 0
4 0 0 0 0 34 0
5 0 0 0 0 35 0
6 0 0 0 0 36 0
7 0 0 0 0 37 0
8 0 0 0 0 38 0
9 0 0 0 0 39 0
10 0 0 0 0 40 0
11 0 0 0 0 41 0
12 0 0 0 0 42 0
13 0 0 0 0 43 0
14 0 0 0 0 44 0
15 0 0 0 0 45 0
16 0 0 0 0 46 0
17 0 0 0 0 47 0
18 0 0 0 0 48 0
19 0 0 0 0 49 0
20 0 0 0 0 50 0
21 0 0 0 0 51 0
22 0 0 0 0 52 0
23 0 0 0 0 53 0
24 0 0 0 0 54 0
25 0 0 0 0 55 0
26 0 0 0 0 56 0
27 0 0 0 0 57 0
28 0 0 0 0 58 0
29 0 0 0 0 59 0
30 0 0 0 0 60 0
31 0 0 0 0 61 0
32 0 0 0 0 0 2
33 0 0 0 0 0 3
34 0 0 0 0 0 4
35 0 0 0 0 0 5
36 0 0 0 0 0 6
37 0 0 0 0 0 7
38 0 0 0 0 0 8
39 0 0 0 0 0 9
40 0 0 0 0 0 10
41 0 0 0 0 0 11
42 0 0 0 0 0 12
43 0 0 0 0 0 13
44 0 0 0 0 0 14
45 0 0 0 0 0 15
46 0 0 0 0 0 16
47 0 0 0 0 0 17
48 0 0 0 0 0 18
49 0 0 0 0 0 19
50 0 0 0 0 0 20
51 0 0 0 0 0 21
52 0 0 0 0 0 22
53 0 0 0 0 0 23
54 0 0 0 0 0 24
55 0 0 0 0 0 25
56 0 0 0 0 0 26
57 0 0 0 0 0 27
58 0 0 0 0 0 28
59 0 0 0 0 0 29
60 0 0 0 0 0 30
61 0 0 0 0 0 31
DEPOT_SECTION
1 
-1
EOF
